(set-logic QF_S)
(declare-fun var0 () String)
(assert (str.in.re var0 (re.++ (re.* (re.* (str.to.re "000"))) (re.++ (re.union (re.+ (str.to.re "1")) (re.+ (str.to.re "222"))) (re.++ (re.+ (re.* (str.to.re "3"))) (re.++ (re.+ (re.union (str.to.re "444") (str.to.re "5"))) (re.++ (re.+ (re.* (str.to.re "6"))) (re.++ (re.* (re.* (str.to.re "77"))) (re.++ (re.+ (re.* (str.to.re "888"))) (re.++ (re.+ (re.+ (str.to.re "9"))) (re.++ (re.* (re.union (str.to.re "a") (str.to.re "bb"))) (re.++ (re.* (re.union (str.to.re "c") (str.to.re "dd"))) (re.++ (re.* (re.+ (str.to.re "e"))) (re.++ (re.+ (re.union (str.to.re "f") (str.to.re "g"))) (re.++ (re.* (re.* (str.to.re "h"))) (re.++ (re.union (re.+ (str.to.re "iii")) (re.+ (str.to.re "j"))) (re.++ (re.* (re.* (str.to.re "kk"))) (re.++ (re.+ (re.union (str.to.re "l") (str.to.re "m"))) (re.++ (re.+ (re.union (str.to.re "nn") (str.to.re "o"))) (re.++ (re.union (re.union (str.to.re "pp") (str.to.re "qqq")) (re.union (str.to.re "rrr") (str.to.re "sss"))) (re.++ (re.* (re.union (str.to.re "t") (str.to.re "uu"))) (re.++ (re.union (re.+ (str.to.re "vvv")) (re.+ (str.to.re "www"))) (re.++ (re.+ (re.* (str.to.re "x"))) (re.++ (re.union (re.+ (str.to.re "y")) (re.+ (str.to.re "zz"))) (re.++ (re.+ (re.+ (str.to.re "AA"))) (re.++ (re.* (re.union (str.to.re "BB") (str.to.re "C"))) (re.++ (re.+ (re.union (str.to.re "D") (str.to.re "EE"))) (re.++ (re.+ (re.union (str.to.re "FF") (str.to.re "GG"))) (re.++ (re.union (re.union (str.to.re "HH") (str.to.re "I")) (re.union (str.to.re "JJJ") (str.to.re "KK"))) (re.++ (re.+ (re.union (str.to.re "LL") (str.to.re "MM"))) (re.+ (re.union (str.to.re "NNN") (str.to.re "OO")))))))))))))))))))))))))))))))))
(check-sat)